Pc
1.0
       12.1000003815         0.0000000000         0.0000000000
       -0.3574883866        16.8820147998         0.0000000000
       -0.3574883866         0.1055957275        16.8816845499
   Sn   Br    C    P    H
   16   48   16   16   96
Direct
     0.266510008         0.367240022         0.867390003
     0.266510009         0.867240039         0.367390011
     0.766510087         0.367240022         0.867390003
     0.766510029         0.867240045         0.367380012
     0.264360006         0.141920006         0.142220018
     0.264360025         0.641919986         0.642220025
     0.764360006         0.141920006         0.142220018
     0.764359985         0.641919986         0.642220025
     0.266510019         0.117390006         0.617240036
     0.266510016         0.617389953         0.117240001
     0.766510019         0.117390006         0.617240036
     0.766510036         0.617389959         0.117230002
     0.264359995         0.392220002         0.391920015
     0.264360015         0.892220067         0.891919980
     0.764359995         0.392220002         0.391920015
     0.764359976         0.892220067         0.891919980
     0.259110018         0.531229973         0.481940034
     0.259109998         0.031229974         0.981939998
     0.759109959         0.531229973         0.481940034
     0.759109958         0.031229974         0.981939998
     0.262080020         0.985570110         0.718819999
     0.262080018         0.485570017         0.218820020
     0.762080020         0.985570110         0.718819999
     0.762079959         0.485570017         0.218820020
     0.249479987         0.231309991         0.781020023
     0.249479987         0.731310014         0.281010003
     0.749480066         0.231309991         0.781020023
     0.749480007         0.731310014         0.281010003
     0.496040006         0.356750041         0.865520017
     0.496040006         0.856750029         0.365520024
     0.996040006         0.356750041         0.865520017
     0.996039927         0.856750029         0.365520024
     0.498470041         0.147789997         0.142940004
     0.498470022         0.647790048         0.642940011
     0.998469962         0.147789997         0.142940004
     0.998470022         0.647790048         0.642940011
     0.257160006         0.271470031         0.043030002
     0.257160008         0.771470039         0.543030054
     0.757159967         0.271470031         0.043030002
     0.757160027         0.771470039         0.543030054
     0.259110009         0.231940006         0.281230010
     0.259110008         0.731940001         0.781230003
     0.759109970         0.231940006         0.281230010
     0.759110028         0.731940001         0.781230003
     0.262080009         0.468820019         0.735570057
     0.262080026         0.968819980         0.235570008
     0.762080029         0.468820019         0.735570057
     0.762080026         0.968819980         0.235570008
     0.249479998         0.031010002         0.481320038
     0.249479996         0.531020008         0.981310003
     0.749480018         0.031010001         0.481310039
     0.749479997         0.531010010         0.981310003
     0.496040016         0.115520000         0.606750044
     0.496040015         0.615520031         0.106750002
     0.996039937         0.115520000         0.606750044
     0.996039936         0.615520031         0.106750002
     0.498470033         0.392940032         0.397790035
     0.498470011         0.892939985         0.897790028
     0.998470033         0.392940032         0.397790035
     0.998470011         0.892939985         0.897790028
     0.257159996         0.293029998         0.521470014
     0.257160015         0.793030043         0.021469952
     0.757160035         0.293029998         0.521470014
     0.757160035         0.793030043         0.021469952
     0.001760000         0.074120004         0.367940013
     0.001760002         0.574120034         0.867940063
     0.501750020         0.074120004         0.367940013
     0.501750002         0.574120034         0.867940063
     0.006789999         0.398879993         0.076150004
     0.006790001         0.898880002         0.576150039
     0.506789985         0.398879993         0.076150004
     0.506789966         0.898880002         0.576150039
     0.001760001         0.117940002         0.824130049
     0.001760000         0.617940011         0.324120001
     0.501749991         0.117940002         0.824130049
     0.501750010         0.617940011         0.324120001
     0.006790002         0.326150012         0.648880052
     0.006790001         0.826150030         0.148880017
     0.506789977         0.326150012         0.648880052
     0.506789977         0.826150030         0.148880017
     0.006700001         0.175830024         0.396440026
     0.006700000         0.675829990         0.896440047
     0.506700001         0.175830024         0.396440026
     0.506699980         0.675829990         0.896440047
     0.008350000         0.375620024         0.179340007
     0.008350002         0.875620033         0.679340014
     0.508339988         0.375620024         0.179340007
     0.508340007         0.875620033         0.679340014
     0.006700001         0.146440002         0.925840056
     0.006700002         0.646440067         0.425830036
     0.506699991         0.146440008         0.925830057
     0.506699992         0.646440067         0.425830036
     0.008350002         0.429340029         0.625620008
     0.008349998         0.929339990         0.125620001
     0.508340017         0.429340029         0.625620008
     0.508340016         0.929339990         0.125620001
     0.928030058         0.063649999         0.330010018
     0.928030039         0.563650008         0.830010039
     0.428030019         0.063649999         0.330010018
     0.428029999         0.563650008         0.830010039
     0.997219980         0.036940001         0.421270029
     0.997219960         0.536939988         0.921270050
     0.497220019         0.036940001         0.421270029
     0.497219999         0.536939988         0.921270050
     0.077270000         0.061310002         0.335820016
     0.077270005         0.561309988         0.835810038
     0.577260025         0.061310001         0.335810017
     0.577260044         0.561309988         0.835810038
     0.912550001         0.197359996         0.438380024
     0.912549979         0.697359962         0.938380017
     0.412550001         0.197359996         0.438380024
     0.412549979         0.697359962         0.938380017
     0.011599999         0.224560001         0.328960008
     0.011600003         0.724560080         0.828960029
     0.511600033         0.224560001         0.328960008
     0.511600055         0.724560080         0.828960029
     0.100769995         0.194900008         0.443940046
     0.100769993         0.694899995         0.943929983
     0.600759971         0.194890010         0.443940046
     0.600759969         0.694899989         0.943940039
     0.933879915         0.434580005         0.062370001
     0.933879898         0.934580098         0.562370029
     0.433869984         0.434580005         0.062370001
     0.433869967         0.934580098         0.562370029
     0.002579999         0.343730006         0.042280001
     0.002579997         0.843729987         0.542280015
     0.502569939         0.343730006         0.042280001
     0.502569958         0.843729987         0.542280015
     0.082570003         0.432650001         0.062050004
     0.082570000         0.932650066         0.562050004
     0.582570038         0.432650001         0.062050004
     0.582570019         0.932650066         0.562050004
     0.913329995         0.331360006         0.200850010
     0.913330056         0.831360042         0.700850059
     0.413329976         0.331350007         0.200850010
     0.413329998         0.831350043         0.700850059
     0.012520000         0.444090016         0.225870009
     0.012520004         0.944090081         0.725870044
     0.512520011         0.444090016         0.225870009
     0.512520033         0.944090081         0.725870044
     0.100709989         0.330070007         0.201190005
     0.100709995         0.830070050         0.701180027
     0.600709979         0.330069985         0.201180006
     0.600709980         0.830070044         0.701190026
     0.928029970         0.080009995         0.813650056
     0.928029990         0.580000013         0.313650035
     0.428029990         0.079999996         0.813650056
     0.428030049         0.580000019         0.313640008
     0.997220048         0.171269998         0.786940010
     0.997219970         0.671270015         0.286940017
     0.497220009         0.171269998         0.786940010
     0.497220009         0.671270015         0.286940017
     0.077270004         0.085809999         0.811310002
     0.077270005         0.585810016         0.311310009
     0.577260054         0.085809999         0.811310002
     0.577260035         0.585810022         0.311300010
     0.912549992         0.188380010         0.947360043
     0.912549912         0.688380013         0.447360023
     0.412549992         0.188380010         0.947360043
     0.412549991         0.688380013         0.447360023
     0.011600000         0.078960004         0.974560041
     0.011600001         0.578960035         0.474560021
     0.511600024         0.078960004         0.974560041
     0.511600024         0.578960035         0.474560021
     0.100769993         0.193940002         0.944900001
     0.100769994         0.693930011         0.444890010
     0.600759979         0.193940002         0.944900001
     0.600759980         0.693930011         0.444890010
     0.933879985         0.312369996         0.684580067
     0.933879907         0.812370070         0.184580004
     0.433869976         0.312369996         0.684580067
     0.433869976         0.812370070         0.184580004
     0.002580000         0.292280001         0.593730016
     0.002580001         0.792280018         0.093730009
     0.502569969         0.292280001         0.593730016
     0.502569969         0.792280018         0.093730009
     0.082570001         0.312060015         0.682650086
     0.082570004         0.812050034         0.182650009
     0.582570031         0.312050017         0.682650086
     0.582570009         0.812050040         0.182640010
     0.913329984         0.450850004         0.581359982
     0.913330008         0.950850111         0.081350004
     0.413330006         0.450850010         0.581350039
     0.413330008         0.950850111         0.081350004
     0.012520002         0.475870005         0.694090042
     0.012520002         0.975870050         0.194090007
     0.512520002         0.475870005         0.694090042
     0.512520002         0.975870050         0.194090007
     0.100709995         0.451190011         0.580070051
     0.100709994         0.951190006         0.080060003
     0.600709991         0.451180018         0.580060052
     0.600709948         0.951179950         0.080060003
