2Cubic
1.0
       12.1000003815         0.0000000000         0.0000000000
       -0.3574883866        16.8820147998         0.0000000000
       -0.3574883866         0.1055957275        16.8816845499
   Sn   Br    C    P    H
   16   48   16   16   96
Direct
     0.249999996         0.375000009         0.875000051
     0.249999995         0.874999998         0.375000030
     0.750000055         0.375000009         0.875000051
     0.750000054         0.874999998         0.375000030
     0.249999995         0.125000009         0.125000005
     0.250000015         0.625000032         0.625000012
     0.749999995         0.125000009         0.125000005
     0.749999976         0.625000032         0.625000012
     0.250000005         0.125000005         0.625000012
     0.250000007         0.625000064         0.125000005
     0.749999985         0.125000005         0.625000012
     0.749999987         0.625000064         0.125000005
     0.249999986         0.375000013         0.375000030
     0.250000006         0.875000022         0.875000051
     0.750000065         0.375000013         0.375000030
     0.750000045         0.875000022         0.875000051
     0.250000000         0.000000000         0.000000000
     0.249999981         0.500000037         0.500000021
     0.750000039         0.000000000         0.000000000
     0.750000021         0.500000037         0.500000021
     0.250000006        -0.000000000         0.750000060
     0.249999985         0.499999996         0.250000010
     0.750000065        -0.000000000         0.750000060
     0.750000064         0.499999996         0.250000010
     0.250000002         0.250000014         0.750000060
     0.250000000         0.750000003         0.250000010
     0.750000100         0.250000014         0.750000060
     0.750000098         0.750000003         0.250000010
     0.000000001         0.375000009         0.875000051
     0.000000000         0.874999998         0.375000030
     0.500000016         0.375000009         0.875000051
     0.500000015         0.874999998         0.375000030
     0.000000000         0.125000009         0.125000005
     0.000000001         0.625000032         0.625000012
     0.500000035         0.125000009         0.125000005
     0.500000015         0.625000032         0.625000012
     0.249999995         0.250000006         0.000000000
     0.250000016         0.750000043         0.500000021
     0.750000074         0.250000006         0.000000000
     0.750000055         0.750000043         0.500000021
     0.249999991         0.250000018         0.250000010
     0.250000012         0.750000027         0.750000060
     0.750000109         0.250000018         0.250000010
     0.750000090         0.750000027         0.750000060
     0.249999995        -0.000000000         0.250000010
     0.249999997         0.500000020         0.750000060
     0.750000074        -0.000000000         0.250000010
     0.750000056         0.500000020         0.750000060
     0.249999990        -0.000000000         0.500000021
     0.249999990         0.500000013         0.000000000
     0.750000030        -0.000000000         0.500000021
     0.750000030         0.500000013         0.000000000
     0.000000000         0.125000005         0.625000012
     0.000000002         0.625000064         0.125000005
     0.500000025         0.125000005         0.625000012
     0.500000026         0.625000064         0.125000005
     0.000000001         0.375000013         0.375000030
     0.000000001         0.875000022         0.875000051
     0.500000025         0.375000013         0.375000030
     0.500000006         0.875000022         0.875000051
     0.249999985         0.250000002         0.500000021
     0.250000005         0.750000019         0.000000000
     0.750000064         0.250000002         0.500000021
     0.750000064         0.750000019         0.000000000
     0.501309979         0.084350006         0.339920039
     0.501309978         0.584349987         0.839930031
     0.001309991         0.084350006         0.339920039
     0.001309992         0.584349987         0.839930031
     0.503549980         0.423590010         0.170780010
     0.503550000         0.923589990         0.670780059
     0.003559948         0.423590010         0.170780010
     0.003559945         0.923589990         0.670780059
     0.501310027         0.089929997         0.834350011
     0.501309988         0.589930035         0.334349990
     0.001309992         0.089929997         0.834350011
     0.001309993         0.589930035         0.334349990
     0.503550009         0.420780017         0.673590011
     0.503549971         0.920780062         0.173590018
     0.003559947         0.420780017         0.673590011
     0.003559947         0.920780062         0.173590018
     0.497409989         0.163780005         0.408569999
     0.497409988         0.663779992         0.908559992
     0.997409989         0.163780005         0.408569999
     0.997410067         0.663779992         0.908559992
     0.495200015         0.358210011         0.088699999
     0.495200035         0.858210048         0.588699999
     0.995199936         0.358210011         0.088699999
     0.995199995         0.858210048         0.588699999
     0.497409980         0.158559992         0.913790046
     0.497409999         0.658570008         0.413789997
     0.997409980         0.158559992         0.913790046
     0.997410038         0.658570008         0.413789997
     0.495200006         0.338699992         0.608210070
     0.495200005         0.838700038         0.108210000
     0.995199927         0.338699992         0.608210070
     0.995199927         0.838700038         0.108210000
     0.430810039         0.088560005         0.298210018
     0.430810020         0.588560028         0.798210039
     0.930810000         0.088560005         0.298210018
     0.930809961         0.588570027         0.798210039
     0.496279994         0.028020001         0.372560014
     0.496279976         0.528020041         0.872560063
     0.996280033         0.028020001         0.372560014
     0.996280094         0.528020041         0.872560063
     0.579370020         0.088210004         0.307930001
     0.579370021         0.588219997         0.807930050
     0.079370020         0.088210004         0.307930001
     0.079370023         0.588219997         0.807930050
     0.399199965         0.160530004         0.452650042
     0.399200003         0.660529990         0.952640036
     0.899200004         0.160530004         0.452650042
     0.899200003         0.660529990         0.952640036
     0.502410001         0.236719986         0.368099998
     0.502409983         0.736720022         0.868100047
     0.002410055         0.236729985         0.368099998
     0.002410057         0.736720022         0.868100047
     0.588609971         0.160290008         0.462410021
     0.588609992         0.660290031         0.962410042
     0.088610060         0.160290008         0.462410021
     0.088610056         0.660290031         0.962410042
     0.431930034         0.412440017         0.208590017
     0.431930013         0.912440026         0.708589981
     0.931929995         0.412440017         0.208590017
     0.931929974         0.912440026         0.708589981
     0.503290003         0.484920027         0.149000005
     0.503289984         0.984930056         0.649010039
     0.003290057         0.484920027         0.149000005
     0.003290063         0.984930056         0.649010039
     0.580359957         0.412889995         0.204810005
     0.580359998         0.912880004         0.704810068
     0.080360051         0.412880002         0.204800006
     0.080360051         0.912880011         0.704800012
     0.398479963         0.371789976         0.042680000
     0.398480024         0.871790013         0.542680032
     0.898480003         0.371789976         0.042680000
     0.898479984         0.871790013         0.542680032
     0.494200030         0.278760000         0.113930006
     0.494200011         0.778760009         0.613930020
     0.994200030         0.278760000         0.113930006
     0.994200011         0.778760009         0.613930020
     0.586469998         0.371369993         0.039190002
     0.586469980         0.871370030         0.539190034
     0.086470013         0.371369993         0.039190002
     0.086470015         0.871370030         0.539190034
     0.430810030         0.048200002         0.838570051
     0.430810050         0.548210054         0.338570001
     0.930809990         0.048200002         0.838570051
     0.930809971         0.548210054         0.338570001
     0.496280024         0.122560014         0.778020034
     0.496279985         0.622560059         0.278020013
     0.996280024         0.122560014         0.778020034
     0.996280025         0.622560059         0.278020013
     0.579370011         0.057920000         0.838220028
     0.579370010         0.557929979         0.338210008
     0.079370021         0.057920000         0.838220028
     0.079370020         0.557929979         0.338210008
     0.399199954         0.202640013         0.910540025
     0.399199974         0.702640036         0.410530005
     0.899200072         0.202640013         0.910540025
     0.899200014         0.702640036         0.410530005
     0.502409992         0.118090004         0.986730039
     0.502409991         0.618089993         0.486730018
     0.002410056         0.118090004         0.986730039
     0.002410055         0.618099992         0.486730018
     0.588610001         0.212410008         0.910290049
     0.588609999         0.712409940         0.410290028
     0.088610056         0.212410008         0.910290049
     0.088610053         0.712409940         0.410290028
     0.431930025         0.458590023         0.662440027
     0.431930022         0.958589955         0.162440006
     0.931930064         0.458590023         0.662440027
     0.931930061         0.958589955         0.162440006
     0.503289992         0.399010006         0.734930007
     0.503289973         0.899010029         0.234920001
     0.003290058         0.399010006         0.734930007
     0.003290056         0.899010029         0.234920001
     0.580360008         0.454810002         0.662880040
     0.580360007         0.954810019         0.162880005
     0.080360052         0.454810002         0.662880040
     0.080360052         0.954810019         0.162880005
     0.398479995         0.292680013         0.621790043
     0.398479994         0.792680030         0.121790008
     0.898480074         0.292680013         0.621790043
     0.898480073         0.792680030         0.121790008
     0.494200021         0.363930006         0.528760036
     0.494199980         0.863929967         0.028760001
     0.994199942         0.363930006         0.528760036
     0.994200019         0.863929967         0.028760001
     0.586469990         0.289190027         0.621370028
     0.586469989         0.789190016         0.121370007
     0.086470015         0.289190027         0.621370028
     0.086470009         0.789190016         0.121370007
